p sp 34 78
a 0 1
a 0 2
a 0 3
a 0 4
a 0 5
a 0 6
a 0 7
a 0 8
a 0 10
a 0 11
a 0 12
a 0 13
a 0 17
a 0 19
a 0 21
a 0 31
a 1 0
a 1 2
a 1 3
a 1 7
a 1 13
a 1 17
a 1 19
a 1 21
a 1 30
a 2 0
a 2 1
a 2 3
a 2 7
a 2 8
a 2 9
a 2 13
a 2 27
a 2 28
a 2 32
a 3 0
a 3 1
a 3 2
a 3 7
a 3 12
a 3 13
a 4 0
a 4 6
a 4 10
a 5 0
a 5 6
a 5 10
a 5 16
a 6 0
a 6 4
a 6 5
a 6 16
a 7 0
a 7 1
a 7 2
a 7 3
a 8 0
a 8 2
a 8 30
a 8 32
a 8 33
a 9 2
a 9 33
a 10 0
a 10 4
a 10 5
a 11 0
a 12 0
a 12 3
a 13 0
a 13 1
a 13 2
a 13 3
a 13 33
a 14 32
a 14 33
a 15 32
a 15 33
a 16 5
a 16 6
a 17 0
a 17 1
a 18 32
a 18 33
a 19 0
a 19 1
a 19 33
a 20 32
a 20 33
a 21 0
a 21 1
a 22 32
a 22 33
a 23 25
a 23 27
a 23 29
a 23 32
a 23 33
a 24 25
a 24 27
a 24 31
a 25 23
a 25 24
a 25 31
a 26 29
a 26 33
a 27 2
a 27 23
a 27 24
a 27 33
a 28 2
a 28 31
a 28 33
a 29 23
a 29 26
a 29 32
a 29 33
a 30 1
a 30 8
a 30 32
a 30 33
a 31 0
a 31 24
a 31 25
a 31 28
a 31 32
a 31 33
a 32 2
a 32 8
a 32 14
a 32 15
a 32 18
a 32 20
a 32 22
a 32 23
a 32 29
a 32 30
a 32 31
a 32 33
a 33 8
a 33 9
a 33 13
a 33 14
a 33 15
a 33 18
a 33 19
a 33 20
a 33 22
a 33 23
a 33 26
a 33 27
a 33 28
a 33 29
a 33 30
a 33 31
a 33 32
